p cnf 225 1188
1 2 3 4 5 0
6 7 8 9 10 0
11 12 13 14 15 0
16 17 18 19 20 0
21 22 23 24 25 0
26 27 28 29 30 0
31 32 33 34 35 0
36 37 38 39 40 0
41 42 43 44 45 0
46 47 48 49 50 0
51 52 53 54 55 0
56 57 58 59 60 0
61 62 63 64 65 0
66 67 68 69 70 0
71 72 73 74 75 0
76 77 78 79 80 0
81 82 83 84 85 0
86 87 88 89 90 0
91 92 93 94 95 0
96 97 98 99 100 0
101 102 103 104 105 0
106 107 108 109 110 0
111 112 113 114 115 0
116 117 118 119 120 0
121 122 123 124 125 0
126 127 128 129 130 0
131 132 133 134 135 0
136 137 138 139 140 0
141 142 143 144 145 0
146 147 148 149 150 0
151 152 153 154 155 0
156 157 158 159 160 0
161 162 163 164 165 0
166 167 168 169 170 0
171 172 173 174 175 0
176 177 178 179 180 0
181 182 183 184 185 0
186 187 188 189 190 0
191 192 193 194 195 0
196 197 198 199 200 0
201 202 203 204 205 0
206 207 208 209 210 0
211 212 213 214 215 0
216 217 218 219 220 0
221 222 223 224 225 0
-1 -2 0
-1 -3 0
-1 -4 0
-1 -5 0
-2 -3 0
-2 -4 0
-2 -5 0
-3 -4 0
-3 -5 0
-4 -5 0
-6 -7 0
-6 -8 0
-6 -9 0
-6 -10 0
-7 -8 0
-7 -9 0
-7 -10 0
-8 -9 0
-8 -10 0
-9 -10 0
-11 -12 0
-11 -13 0
-11 -14 0
-11 -15 0
-12 -13 0
-12 -14 0
-12 -15 0
-13 -14 0
-13 -15 0
-14 -15 0
-16 -17 0
-16 -18 0
-16 -19 0
-16 -20 0
-17 -18 0
-17 -19 0
-17 -20 0
-18 -19 0
-18 -20 0
-19 -20 0
-21 -22 0
-21 -23 0
-21 -24 0
-21 -25 0
-22 -23 0
-22 -24 0
-22 -25 0
-23 -24 0
-23 -25 0
-24 -25 0
-26 -27 0
-26 -28 0
-26 -29 0
-26 -30 0
-27 -28 0
-27 -29 0
-27 -30 0
-28 -29 0
-28 -30 0
-29 -30 0
-31 -32 0
-31 -33 0
-31 -34 0
-31 -35 0
-32 -33 0
-32 -34 0
-32 -35 0
-33 -34 0
-33 -35 0
-34 -35 0
-36 -37 0
-36 -38 0
-36 -39 0
-36 -40 0
-37 -38 0
-37 -39 0
-37 -40 0
-38 -39 0
-38 -40 0
-39 -40 0
-41 -42 0
-41 -43 0
-41 -44 0
-41 -45 0
-42 -43 0
-42 -44 0
-42 -45 0
-43 -44 0
-43 -45 0
-44 -45 0
-46 -47 0
-46 -48 0
-46 -49 0
-46 -50 0
-47 -48 0
-47 -49 0
-47 -50 0
-48 -49 0
-48 -50 0
-49 -50 0
-51 -52 0
-51 -53 0
-51 -54 0
-51 -55 0
-52 -53 0
-52 -54 0
-52 -55 0
-53 -54 0
-53 -55 0
-54 -55 0
-56 -57 0
-56 -58 0
-56 -59 0
-56 -60 0
-57 -58 0
-57 -59 0
-57 -60 0
-58 -59 0
-58 -60 0
-59 -60 0
-61 -62 0
-61 -63 0
-61 -64 0
-61 -65 0
-62 -63 0
-62 -64 0
-62 -65 0
-63 -64 0
-63 -65 0
-64 -65 0
-66 -67 0
-66 -68 0
-66 -69 0
-66 -70 0
-67 -68 0
-67 -69 0
-67 -70 0
-68 -69 0
-68 -70 0
-69 -70 0
-71 -72 0
-71 -73 0
-71 -74 0
-71 -75 0
-72 -73 0
-72 -74 0
-72 -75 0
-73 -74 0
-73 -75 0
-74 -75 0
-76 -77 0
-76 -78 0
-76 -79 0
-76 -80 0
-77 -78 0
-77 -79 0
-77 -80 0
-78 -79 0
-78 -80 0
-79 -80 0
-81 -82 0
-81 -83 0
-81 -84 0
-81 -85 0
-82 -83 0
-82 -84 0
-82 -85 0
-83 -84 0
-83 -85 0
-84 -85 0
-86 -87 0
-86 -88 0
-86 -89 0
-86 -90 0
-87 -88 0
-87 -89 0
-87 -90 0
-88 -89 0
-88 -90 0
-89 -90 0
-91 -92 0
-91 -93 0
-91 -94 0
-91 -95 0
-92 -93 0
-92 -94 0
-92 -95 0
-93 -94 0
-93 -95 0
-94 -95 0
-96 -97 0
-96 -98 0
-96 -99 0
-96 -100 0
-97 -98 0
-97 -99 0
-97 -100 0
-98 -99 0
-98 -100 0
-99 -100 0
-101 -102 0
-101 -103 0
-101 -104 0
-101 -105 0
-102 -103 0
-102 -104 0
-102 -105 0
-103 -104 0
-103 -105 0
-104 -105 0
-106 -107 0
-106 -108 0
-106 -109 0
-106 -110 0
-107 -108 0
-107 -109 0
-107 -110 0
-108 -109 0
-108 -110 0
-109 -110 0
-111 -112 0
-111 -113 0
-111 -114 0
-111 -115 0
-112 -113 0
-112 -114 0
-112 -115 0
-113 -114 0
-113 -115 0
-114 -115 0
-116 -117 0
-116 -118 0
-116 -119 0
-116 -120 0
-117 -118 0
-117 -119 0
-117 -120 0
-118 -119 0
-118 -120 0
-119 -120 0
-121 -122 0
-121 -123 0
-121 -124 0
-121 -125 0
-122 -123 0
-122 -124 0
-122 -125 0
-123 -124 0
-123 -125 0
-124 -125 0
-126 -127 0
-126 -128 0
-126 -129 0
-126 -130 0
-127 -128 0
-127 -129 0
-127 -130 0
-128 -129 0
-128 -130 0
-129 -130 0
-131 -132 0
-131 -133 0
-131 -134 0
-131 -135 0
-132 -133 0
-132 -134 0
-132 -135 0
-133 -134 0
-133 -135 0
-134 -135 0
-136 -137 0
-136 -138 0
-136 -139 0
-136 -140 0
-137 -138 0
-137 -139 0
-137 -140 0
-138 -139 0
-138 -140 0
-139 -140 0
-141 -142 0
-141 -143 0
-141 -144 0
-141 -145 0
-142 -143 0
-142 -144 0
-142 -145 0
-143 -144 0
-143 -145 0
-144 -145 0
-146 -147 0
-146 -148 0
-146 -149 0
-146 -150 0
-147 -148 0
-147 -149 0
-147 -150 0
-148 -149 0
-148 -150 0
-149 -150 0
-151 -152 0
-151 -153 0
-151 -154 0
-151 -155 0
-152 -153 0
-152 -154 0
-152 -155 0
-153 -154 0
-153 -155 0
-154 -155 0
-156 -157 0
-156 -158 0
-156 -159 0
-156 -160 0
-157 -158 0
-157 -159 0
-157 -160 0
-158 -159 0
-158 -160 0
-159 -160 0
-161 -162 0
-161 -163 0
-161 -164 0
-161 -165 0
-162 -163 0
-162 -164 0
-162 -165 0
-163 -164 0
-163 -165 0
-164 -165 0
-166 -167 0
-166 -168 0
-166 -169 0
-166 -170 0
-167 -168 0
-167 -169 0
-167 -170 0
-168 -169 0
-168 -170 0
-169 -170 0
-171 -172 0
-171 -173 0
-171 -174 0
-171 -175 0
-172 -173 0
-172 -174 0
-172 -175 0
-173 -174 0
-173 -175 0
-174 -175 0
-176 -177 0
-176 -178 0
-176 -179 0
-176 -180 0
-177 -178 0
-177 -179 0
-177 -180 0
-178 -179 0
-178 -180 0
-179 -180 0
-181 -182 0
-181 -183 0
-181 -184 0
-181 -185 0
-182 -183 0
-182 -184 0
-182 -185 0
-183 -184 0
-183 -185 0
-184 -185 0
-186 -187 0
-186 -188 0
-186 -189 0
-186 -190 0
-187 -188 0
-187 -189 0
-187 -190 0
-188 -189 0
-188 -190 0
-189 -190 0
-191 -192 0
-191 -193 0
-191 -194 0
-191 -195 0
-192 -193 0
-192 -194 0
-192 -195 0
-193 -194 0
-193 -195 0
-194 -195 0
-196 -197 0
-196 -198 0
-196 -199 0
-196 -200 0
-197 -198 0
-197 -199 0
-197 -200 0
-198 -199 0
-198 -200 0
-199 -200 0
-201 -202 0
-201 -203 0
-201 -204 0
-201 -205 0
-202 -203 0
-202 -204 0
-202 -205 0
-203 -204 0
-203 -205 0
-204 -205 0
-206 -207 0
-206 -208 0
-206 -209 0
-206 -210 0
-207 -208 0
-207 -209 0
-207 -210 0
-208 -209 0
-208 -210 0
-209 -210 0
-211 -212 0
-211 -213 0
-211 -214 0
-211 -215 0
-212 -213 0
-212 -214 0
-212 -215 0
-213 -214 0
-213 -215 0
-214 -215 0
-216 -217 0
-216 -218 0
-216 -219 0
-216 -220 0
-217 -218 0
-217 -219 0
-217 -220 0
-218 -219 0
-218 -220 0
-219 -220 0
-221 -222 0
-221 -223 0
-221 -224 0
-221 -225 0
-222 -223 0
-222 -224 0
-222 -225 0
-223 -224 0
-223 -225 0
-224 -225 0
-1 -32 0
-5 -34 0
-4 -33 0
-2 -32 0
-5 -33 0
-1 -35 0
-5 -32 0
-5 -98 0
-1 -96 0
-5 -97 0
-3 -98 0
-2 -97 0
-1 -100 0
-2 -98 0
-2 -189 0
-5 -188 0
-4 -189 0
-2 -188 0
-3 -189 0
-5 -187 0
-4 -186 0
-2 -198 0
-4 -197 0
-2 -200 0
-1 -196 0
-4 -199 0
-3 -199 0
-2 -196 0
-4 -215 0
-4 -213 0
-2 -212 0
-5 -215 0
-4 -212 0
-1 -211 0
-5 -211 0
-6 -29 0
-8 -26 0
-9 -30 0
-7 -27 0
-10 -28 0
-10 -30 0
-9 -28 0
-9 -101 0
-6 -105 0
-7 -105 0
-9 -105 0
-6 -102 0
-8 -102 0
-8 -103 0
-7 -145 0
-9 -144 0
-8 -143 0
-10 -141 0
-8 -144 0
-7 -142 0
-7 -141 0
-14 -65 0
-15 -62 0
-13 -62 0
-14 -62 0
-13 -64 0
-15 -64 0
-12 -64 0
-15 -84 0
-14 -82 0
-11 -84 0
-15 -85 0
-15 -82 0
-11 -82 0
-15 -83 0
-13 -120 0
-14 -118 0
-12 -118 0
-13 -119 0
-11 -116 0
-11 -120 0
-12 -119 0
-13 -172 0
-12 -174 0
-11 -174 0
-12 -175 0
-13 -173 0
-14 -171 0
-14 -172 0
-13 -178 0
-15 -176 0
-15 -178 0
-14 -177 0
-12 -176 0
-12 -178 0
-11 -179 0
-20 -66 0
-20 -68 0
-18 -67 0
-19 -66 0
-18 -66 0
-20 -67 0
-19 -70 0
-19 -76 0
-16 -79 0
-18 -79 0
-16 -76 0
-19 -79 0
-18 -78 0
-19 -78 0
-16 -159 0
-20 -160 0
-17 -156 0
-18 -158 0
-16 -160 0
-19 -159 0
-18 -156 0
-20 -176 0
-17 -179 0
-19 -179 0
-19 -180 0
-16 -177 0
-18 -176 0
-16 -180 0
-17 -186 0
-20 -187 0
-16 -190 0
-17 -187 0
-17 -190 0
-20 -188 0
-16 -188 0
-20 -200 0
-20 -199 0
-18 -200 0
-16 -200 0
-17 -197 0
-17 -196 0
-18 -197 0
-23 -38 0
-21 -37 0
-24 -38 0
-22 -38 0
-22 -40 0
-23 -36 0
-22 -39 0
-22 -90 0
-25 -87 0
-23 -90 0
-24 -87 0
-21 -90 0
-22 -88 0
-25 -89 0
-24 -106 0
-21 -109 0
-25 -106 0
-22 -109 0
-23 -108 0
-22 -108 0
-22 -107 0
-21 -111 0
-24 -115 0
-21 -114 0
-23 -115 0
-21 -113 0
-22 -111 0
-22 -114 0
-24 -163 0
-25 -164 0
-21 -163 0
-23 -161 0
-24 -164 0
-22 -164 0
-24 -161 0
-22 -183 0
-25 -184 0
-21 -181 0
-22 -184 0
-23 -182 0
-24 -184 0
-24 -181 0
-24 -205 0
-23 -202 0
-25 -205 0
-24 -204 0
-23 -201 0
-22 -202 0
-25 -202 0
-25 -221 0
-22 -222 0
-24 -221 0
-25 -224 0
-21 -222 0
-21 -224 0
-23 -221 0
-27 -67 0
-26 -70 0
-30 -68 0
-28 -67 0
-27 -66 0
-30 -66 0
-29 -69 0
-30 -114 0
-29 -112 0
-29 -114 0
-26 -115 0
-26 -114 0
-27 -113 0
-28 -112 0
-28 -124 0
-26 -121 0
-26 -124 0
-27 -122 0
-27 -125 0
-29 -124 0
-28 -121 0
-29 -126 0
-30 -127 0
-28 -126 0
-26 -126 0
-27 -127 0
-26 -129 0
-30 -126 0
-29 -198 0
-29 -199 0
-27 -197 0
-30 -197 0
-28 -200 0
-26 -197 0
-26 -198 0
-29 -211 0
-30 -215 0
-26 -215 0
-27 -215 0
-28 -212 0
-29 -212 0
-27 -214 0
-31 -95 0
-33 -91 0
-35 -92 0
-35 -95 0
-33 -93 0
-33 -95 0
-34 -95 0
-32 -132 0
-34 -135 0
-31 -134 0
-34 -132 0
-34 -133 0
-35 -133 0
-31 -131 0
-31 -205 0
-32 -202 0
-34 -205 0
-35 -202 0
-31 -204 0
-34 -201 0
-35 -205 0
-40 -205 0
-36 -202 0
-39 -203 0
-37 -205 0
-38 -202 0
-36 -201 0
-36 -204 0
-43 -77 0
-44 -76 0
-42 -77 0
-41 -77 0
-42 -76 0
-43 -76 0
-45 -80 0
-45 -88 0
-42 -90 0
-42 -89 0
-43 -87 0
-42 -87 0
-42 -88 0
-43 -86 0
-43 -147 0
-43 -149 0
-43 -150 0
-41 -148 0
-44 -146 0
-45 -150 0
-45 -148 0
-41 -170 0
-41 -168 0
-45 -169 0
-44 -169 0
-45 -167 0
-45 -168 0
-42 -167 0
-45 -219 0
-44 -216 0
-41 -220 0
-41 -219 0
-44 -219 0
-45 -218 0
-43 -218 0
-48 -86 0
-49 -89 0
-46 -90 0
-48 -89 0
-46 -87 0
-49 -90 0
-46 -88 0
-48 -115 0
-47 -115 0
-49 -112 0
-46 -112 0
-47 -114 0
-48 -112 0
-50 -112 0
-47 -177 0
-47 -180 0
-46 -180 0
-46 -178 0
-47 -176 0
-47 -179 0
-49 -178 0
-50 -219 0
-46 -220 0
-49 -220 0
-48 -219 0
-47 -216 0
-48 -220 0
-46 -216 0
-55 -81 0
-52 -85 0
-55 -82 0
-51 -83 0
-55 -83 0
-55 -84 0
-52 -83 0
-53 -204 0
-51 -204 0
-54 -205 0
-53 -205 0
-55 -205 0
-52 -202 0
-52 -201 0
-55 -211 0
-52 -214 0
-53 -214 0
-53 -212 0
-55 -214 0
-51 -211 0
-54 -212 0
-60 -64 0
-57 -62 0
-57 -65 0
-60 -63 0
-57 -63 0
-60 -61 0
-58 -62 0
-57 -70 0
-56 -69 0
-56 -68 0
-57 -66 0
-58 -70 0
-59 -68 0
-56 -67 0
-58 -109 0
-59 -108 0
-57 -107 0
-60 -109 0
-60 -107 0
-59 -110 0
-57 -109 0
-63 -101 0
-62 -105 0
-64 -101 0
-61 -103 0
-65 -104 0
-65 -105 0
-63 -103 0
-64 -155 0
-62 -152 0
-63 -155 0
-61 -155 0
-64 -154 0
-61 -153 0
-63 -151 0
-63 -163 0
-61 -163 0
-64 -164 0
-65 -161 0
-61 -164 0
-65 -164 0
-61 -162 0
-64 -174 0
-65 -171 0
-62 -171 0
-65 -173 0
-65 -175 0
-61 -175 0
-61 -174 0
-67 -101 0
-70 -104 0
-69 -102 0
-67 -103 0
-66 -103 0
-67 -105 0
-70 -102 0
-66 -107 0
-67 -110 0
-67 -107 0
-68 -106 0
-69 -109 0
-66 -110 0
-66 -109 0
-70 -136 0
-66 -139 0
-69 -140 0
-68 -140 0
-69 -138 0
-66 -140 0
-68 -136 0
-70 -195 0
-66 -193 0
-69 -191 0
-67 -195 0
-66 -194 0
-68 -192 0
-67 -192 0
-71 -98 0
-75 -96 0
-74 -97 0
-75 -99 0
-74 -96 0
-71 -97 0
-73 -97 0
-74 -108 0
-75 -106 0
-71 -110 0
-74 -109 0
-72 -106 0
-72 -107 0
-72 -110 0
-75 -130 0
-73 -126 0
-72 -130 0
-71 -128 0
-75 -127 0
-73 -127 0
-71 -129 0
-76 -85 0
-77 -83 0
-80 -84 0
-77 -81 0
-76 -82 0
-80 -82 0
-80 -81 0
-79 -211 0
-80 -211 0
-80 -212 0
-79 -214 0
-79 -213 0
-76 -214 0
-78 -212 0
-80 -222 0
-77 -223 0
-76 -225 0
-76 -223 0
-80 -224 0
-77 -225 0
-76 -224 0
-83 -114 0
-85 -112 0
-85 -114 0
-82 -114 0
-84 -113 0
-84 -112 0
-82 -111 0
-85 -221 0
-83 -221 0
-83 -222 0
-82 -223 0
-85 -223 0
-84 -224 0
-81 -221 0
-90 -97 0
-90 -96 0
-90 -98 0
-86 -96 0
-86 -99 0
-87 -96 0
-88 -96 0
-88 -127 0
-89 -129 0
-89 -126 0
-87 -130 0
-88 -128 0
-86 -126 0
-90 -126 0
-87 -146 0
-86 -148 0
-90 -149 0
-87 -148 0
-88 -149 0
-90 -148 0
-86 -146 0
-86 -152 0
-86 -154 0
-89 -152 0
-89 -155 0
-87 -153 0
-88 -151 0
-86 -153 0
-89 -192 0
-90 -194 0
-87 -191 0
-88 -195 0
-90 -191 0
-88 -194 0
-88 -193 0
-91 -198 0
-93 -198 0
-92 -198 0
-95 -196 0
-94 -200 0
-92 -196 0
-92 -200 0
-98 -104 0
-98 -101 0
-100 -102 0
-99 -103 0
-100 -104 0
-97 -104 0
-100 -103 0
-98 -120 0
-97 -117 0
-98 -117 0
-98 -118 0
-96 -118 0
-100 -119 0
-96 -117 0
-100 -121 0
-99 -123 0
-96 -124 0
-99 -125 0
-96 -125 0
-98 -125 0
-100 -124 0
-102 -162 0
-104 -163 0
-104 -162 0
-101 -163 0
-105 -165 0
-103 -165 0
-102 -164 0
-109 -121 0
-106 -123 0
-109 -122 0
-109 -125 0
-110 -125 0
-106 -124 0
-108 -124 0
-113 -125 0
-114 -123 0
-115 -125 0
-115 -124 0
-113 -123 0
-113 -121 0
-113 -124 0
-112 -127 0
-112 -130 0
-113 -128 0
-114 -128 0
-115 -130 0
-112 -128 0
-113 -127 0
-112 -140 0
-113 -139 0
-113 -137 0
-115 -137 0
-115 -136 0
-114 -136 0
-111 -136 0
-114 -194 0
-112 -192 0
-114 -192 0
-111 -192 0
-112 -193 0
-115 -191 0
-111 -194 0
-118 -129 0
-116 -128 0
-117 -129 0
-120 -129 0
-116 -127 0
-118 -126 0
-120 -126 0
-120 -208 0
-119 -209 0
-118 -208 0
-117 -210 0
-120 -207 0
-119 -210 0
-116 -210 0
-120 -213 0
-118 -213 0
-116 -211 0
-120 -212 0
-118 -214 0
-117 -213 0
-120 -211 0
-121 -148 0
-125 -149 0
-121 -147 0
-121 -146 0
-125 -150 0
-124 -147 0
-122 -149 0
-125 -208 0
-122 -210 0
-124 -210 0
-124 -209 0
-122 -206 0
-121 -209 0
-125 -206 0
-123 -218 0
-122 -217 0
-124 -216 0
-121 -219 0
-121 -216 0
-122 -220 0
-122 -216 0
-127 -218 0
-126 -216 0
-126 -218 0
-130 -219 0
-127 -220 0
-127 -217 0
-129 -216 0
-133 -157 0
-133 -159 0
-131 -160 0
-131 -157 0
-131 -158 0
-132 -156 0
-131 -156 0
-137 -177 0
-136 -180 0
-138 -177 0
-138 -176 0
-138 -180 0
-136 -178 0
-140 -180 0
-139 -217 0
-139 -218 0
-138 -217 0
-139 -219 0
-136 -218 0
-138 -219 0
-137 -216 0
-145 -207 0
-144 -210 0
-145 -206 0
-141 -207 0
-142 -209 0
-141 -206 0
-143 -208 0
-154 -168 0
-154 -167 0
-153 -170 0
-151 -168 0
-155 -167 0
-154 -169 0
-151 -167 0
-165 -203 0
-164 -202 0
-165 -204 0
-165 -202 0
-161 -202 0
-164 -203 0
-163 -204 0
-167 -202 0
-167 -204 0
-170 -202 0
-166 -201 0
-168 -203 0
-170 -201 0
-167 -205 0
-179 -207 0
-176 -207 0
-179 -208 0
-180 -207 0
-178 -210 0
-179 -209 0
-177 -208 0
-196 -211 0
-196 -212 0
-199 -213 0
-198 -213 0
-199 -214 0
-200 -213 0
-198 -211 0
